SCIP version 5.0.0 [precision: 8 byte] [memory: block] [mode: optimized] [LP solver: NONE] [GitHash: 3bbd232]
Copyright (C) 2002-2017 Konrad-Zuse-Zentrum fuer Informationstechnik Berlin (ZIB)

External codes: 
  Readline EditLine w  GNU library for command line editing (gnu.org/s/readline)
  CppAD 20160000.1     Algorithmic Differentiation of C++ algorithms developed by B. Bell (www.coin-or.org/CppAD)
  ZLIB 1.2.5           General purpose compression library by J. Gailly and M. Adler (zlib.net)
  GMP 6.1.2            GNU Multiple Precision Arithmetic Library developed by T. Granlund (gmplib.org)

user parameter file <scip.set> not found - using default parameters

read problem <../../Split_data/output/spectf/7/3_sample_spectf.logreg>
============

File name	:	../../Split_data/output/spectf/7/3_sample_spectf.logreg
Problem name 	:	3_sample_spectf
Number of data	:	213
Number of var	:	44
The given data has linear independence

[dim=1] time: 0.010205
[dim=2] time: 0.019456
[dim=3] time: 0.026948
[dim=4] time: 0.033843
[dim=5] time: 0.040954
[dim=6] time: 0.048407
[dim=7] time: 0.054737
[dim=8] time: 0.060728
[dim=9] time: 0.066995
[dim=10] time: 0.075262
[dim=11] time: 0.081266
[dim=12] time: 0.086837
[dim=13] time: 0.095502
[dim=14] time: 0.101117
[dim=15] time: 0.106263
[dim=16] time: 0.111242
[dim=17] time: 0.116196
[dim=18] time: 0.121164
[dim=19] Time of forward = 0.126119sec.
AIC: 121.732
k: 18

[dim=44] time: 1.00956
[dim=43] time: 2.62672
[dim=42] time: 5.24441
[dim=41] time: 6.57738
[dim=40] time: 7.29331
[dim=39] time: 8.28754
[dim=38] time: 8.79166
[dim=37] time: 9.2004
[dim=36] time: 9.41491
[dim=35] time: 9.48673
[dim=34] Time of backward = 9.49939sec.
AIC: 70.0268
k: 35
